c instancia_10  vars=15  clausulas=25  k=2
p cnf 15 25
-11 13 0
6 11 0
7 -12 0
12 2 0
6 -14 0
-9 -3 0
8 10 0
-3 4 0
-4 3 0
11 -15 0
11 -8 0
11 13 0
-10 -8 0
11 -10 0
5 13 0
-10 -13 0
-13 -14 0
-8 -13 0
3 10 0
-2 8 0
-3 11 0
6 -1 0
-15 -8 0
2 -9 0
14 5 0
